R=18;
C=5;
bomb=[|0,0,0,0,0,|
0,0,0,0,0,|
0,0,0,0,0,|
0,0,0,0,0,|
0,0,0,0,0,|
0,0,0,0,0,|
0,0,0,0,0,|
0,0,0,0,0,|
0,0,M,0,0,|
0,0,0,0,0,|
0,0,0,0,0,|
0,0,M,0,0,|
0,0,0,0,M,|
0,0,0,0,0,|
0,0,0,0,0,|
0,0,0,0,0,|
0,0,M,0,0,|
0,0,0,0,0,|];